c Random 9-CNF over 40 variables and 80 clauses
c Generated with `cnfgen`
c (C) 2012-2016 Massimo Lauria <lauria.massimo@gmail.com>
c https://massimolauria.github.io/cnfgen
c
c COMMAND LINE: cnfgen --output tmp-9-40-80.dimacs --output-format dimacs randkcnf 9 40 80
c
c sdimacs generated by gen-sdimacs
c
p cnf 40 80
r 0.5 1 2 3 4 5 6 7 8 9 10 11 12 13 14 15 16 17 18 19 20 0
e  21 22 23 24 25 26 27 28 29 30 31 32 33 34 35 36 37 38 39 40 0
-3 4 6 12 17 28 -33 36 39 0
-7 12 -16 17 -18 23 24 -29 -38 0
-6 9 -10 13 17 -24 -26 37 39 0
5 20 -21 -22 -24 -25 -27 29 40 0
-1 4 -16 -20 31 33 37 39 -40 0
-4 10 -11 13 -14 17 18 24 40 0
1 2 3 6 -13 24 -25 -32 36 0
2 3 -6 7 8 18 -19 29 -36 0
4 -5 6 -10 -27 -31 37 -38 -40 0
-3 4 18 24 28 -32 -37 39 40 0
5 -9 13 -16 -19 -21 25 34 -40 0
1 6 -16 -21 28 -30 -31 35 -38 0
-1 -13 16 21 26 27 -31 35 40 0
-1 -12 -13 -20 22 28 30 37 -40 0
2 5 13 14 -24 25 -30 -35 -37 0
-1 2 -7 -28 29 32 -35 36 -39 0
-4 5 -13 17 -19 -20 -35 -37 -40 0
5 7 9 -12 -15 24 29 30 31 0
4 -6 -16 17 -20 -23 26 34 -37 0
2 -3 -5 6 8 -11 14 -28 -39 0
2 4 -9 12 15 23 28 -31 -36 0
-4 -12 15 19 22 -28 -29 32 -35 0
1 2 15 -23 -24 25 31 -33 39 0
5 7 9 -12 24 -26 -34 -35 38 0
1 3 -5 7 -11 14 29 37 40 0
5 -6 -9 -17 -20 26 -27 38 -40 0
-3 -4 9 -17 -25 -28 31 38 39 0
1 3 8 10 14 -21 31 32 36 0
-7 -8 12 17 18 21 24 26 39 0
-5 -7 -11 -20 -25 30 -34 -35 -37 0
2 3 17 20 21 -32 -35 -39 40 0
-5 7 -8 -12 25 -29 30 -32 -35 0
5 -21 -22 24 -29 -31 35 -38 -39 0
-1 -2 -6 13 17 -18 -28 -29 39 0
-4 -10 11 12 -23 -26 29 37 39 0
-5 8 9 -10 22 23 -25 -31 36 0
4 -6 -8 16 28 30 -31 33 -40 0
-4 -7 -8 12 -16 -17 -24 -28 34 0
3 -4 11 26 27 -28 30 32 39 0
-5 -15 -19 -20 28 -31 33 35 -37 0
-11 15 20 -25 27 29 33 -34 37 0
5 10 14 -21 22 -29 -30 33 40 0
-7 10 12 -22 -27 -30 35 38 -40 0
-1 -15 16 20 22 -25 -28 31 39 0
5 -9 -12 18 19 -31 32 -39 40 0
1 13 14 -16 22 26 30 -35 39 0
-8 9 -14 23 24 -30 -31 35 -39 0
8 11 12 13 18 -20 -22 31 -40 0
-1 2 6 13 -14 16 -22 -30 32 0
-6 15 -19 -20 21 -22 -30 -31 37 0
-2 4 9 13 18 -19 -29 30 39 0
-1 -3 -4 15 -18 19 -23 -29 -37 0
-8 -9 -11 -20 24 -26 -36 37 -40 0
-2 -5 7 10 -13 -14 -22 -26 32 0
2 -9 -18 -20 -22 24 30 -35 -39 0
2 5 6 9 -17 -22 23 -34 -40 0
-7 -13 14 -16 -18 29 33 35 37 0
-3 7 -9 -11 16 23 31 -36 38 0
4 -5 -10 -19 21 -27 31 37 -40 0
-3 -7 10 11 -26 28 -30 33 -34 0
-2 3 4 9 14 -15 17 -37 39 0
-9 11 -13 17 -23 -29 31 38 39 0
-1 -3 -9 -13 -15 29 31 -33 -38 0
-7 -14 -18 -21 -22 -26 -30 35 37 0
-1 -2 -8 11 -20 -26 27 -28 36 0
-10 18 22 23 -30 31 34 38 40 0
-2 -3 13 -14 -15 19 23 28 36 0
10 11 14 -22 -23 24 -27 -28 -39 0
-1 -5 8 -16 -17 -24 26 -28 35 0
-7 10 12 -13 -18 -19 -24 32 35 0
-4 8 9 10 15 -20 28 29 40 0
-2 5 11 -15 -23 -26 -27 31 36 0
-1 3 -8 -10 -11 30 33 -34 -35 0
-4 -6 -8 -21 -23 -25 -30 -31 35 0
9 13 -14 15 17 -19 -25 -37 -40 0
10 -14 -17 -18 -19 -22 -28 -29 30 0
-2 -6 10 -11 16 23 33 -35 -39 0
-2 -4 -5 -15 -22 24 26 29 37 0
3 -4 -8 15 -19 20 -29 34 36 0
-4 7 -9 -11 23 -27 -28 -30 32 0
